30
13.64 15.87
98.74 86.9
58.64 33.28
95.86 56.98
63.39 71.17
62.11 85.3
68.26 25.12
66.42 85.05
42.28 49.79
74.28 86.24
5.69 2.91
97.2 81.81
61.76 92.86
13.7 42.09
9.18 40.91
40.85 90.46
25.78 86.81
44.82 0.97
49.92 93.81
60.2 94.65
39.52 85.48
48.08 14.82
60.12 13.02
30.7 49.75
17.78 33.39
23.11 14.37
37.19 33.56
80.34 10.71
17.53 66.04
11.48 98.3
